
Gurobi 11.0.3 (linux64) logging started Thu Apr 16 04:14:55 2026

Set parameter LogFile to value "tree/results/ceva/ceva_depth-3_run-3/Full MIP/LogFile_FullModel.txt"
Gurobi Optimizer version 11.0.3 build v11.0.3rc0 (linux64 - "CentOS Linux 7 (Core)")

CPU model: Intel(R) Xeon(R) Platinum 8260 CPU @ 2.40GHz, instruction set [SSE2|AVX|AVX2|AVX512]
Thread count: 96 physical cores, 192 logical processors, using up to 32 threads

Optimize a model with 104189 rows, 72955 columns and 1636277 nonzeros
Model fingerprint: 0xddb07bc2
Model has 10368 general constraints
Variable types: 41714 continuous, 31241 integer (31241 binary)
Coefficient statistics:
  Matrix range     [8e-04, 1e+04]
  Objective range  [8e-04, 1e+04]
  Bounds range     [1e+00, 1e+03]
  RHS range        [1e-04, 1e+03]

User MIP start produced solution with objective -16299.2 (0.48s)
Loaded user MIP start with objective -16299.2

Presolve added 10360 rows and 31104 columns
Presolve time: 2.21s
Presolved: 114549 rows, 104059 columns, 1698585 nonzeros
Presolved model has 31104 SOS constraint(s)
Variable types: 41714 continuous, 62345 integer (62345 binary)

Deterministic concurrent LP optimizer: primal simplex, dual simplex, and barrier
Showing barrier log only...

Root relaxation presolved: 114549 rows, 104059 columns, 1698585 nonzeros

Root barrier log...

Ordering time: 0.07s

Barrier statistics:
 Dense cols : 112
 AA' NZ     : 1.682e+06
 Factor NZ  : 5.330e+06 (roughly 140 MB of memory)
 Factor Ops : 2.727e+08 (less than 1 second per iteration)
 Threads    : 30

                  Objective                Residual
Iter       Primal          Dual         Primal    Dual     Compl     Time
   0  -8.47975124e+04  1.00004705e+09  1.50e+04 1.97e-14  7.97e+05     5s
   1  -4.24601211e+04  1.54481917e+09  5.22e+03 2.97e+01  2.64e+05     5s
   2  -1.27542573e+04  1.52580090e+09  5.27e+02 3.48e+00  3.13e+04     6s
   3  -9.13458050e+03  8.74425212e+08  5.10e+01 3.83e-01  5.41e+03     6s
   4  -3.40708629e+03  1.59750441e+08  3.55e+00 4.88e-02  7.67e+02     7s
   5  -3.51908407e+02  1.98143241e+07  2.18e-01 4.76e-03  8.90e+01     7s
   6  -3.47236877e+01  2.01478709e+06  2.19e-02 4.76e-04  8.90e+00     8s
   7  -3.00281674e+00  2.06245002e+05  2.30e-03 4.87e-05  9.09e-01     8s
   8   1.94331922e-01  2.57555083e+04  3.24e-04 6.08e-06  1.13e-01     8s
   9   9.13234937e-01  5.91837779e+03  3.21e-05 1.37e-06  2.61e-02     9s
  10   8.82077572e-01  8.47265287e+02  3.18e-06 1.92e-07  3.73e-03     9s
  11   9.88206421e-01  8.66259375e+01  3.15e-07 1.92e-08  3.78e-04     9s
  12   9.98820642e-01  9.56905589e+00  3.15e-08 1.92e-09  3.78e-05     9s
  13   9.99882060e-01  1.86470681e+00  3.12e-09 1.92e-10  3.81e-06    10s
  14   9.99988206e-01  1.08647069e+00  3.12e-10 1.92e-11  3.81e-07    10s
  15   9.99998821e-01  1.00872552e+00  3.11e-11 1.92e-12  3.84e-08    11s
  16   9.99999882e-01  1.00087255e+00  3.27e-12 1.92e-13  3.84e-09    11s
  17   9.99999988e-01  1.00008726e+00  6.04e-13 1.93e-14  3.84e-10    12s
  18   9.99999999e-01  1.00000873e+00  4.19e-13 1.42e-14  3.84e-11    12s
  19   1.00000000e+00  1.00000087e+00  4.12e-13 1.93e-16  3.84e-12    13s
  20   1.00000000e+00  1.00000009e+00  4.26e-13 1.93e-17  3.84e-13    14s
  21   1.00000000e+00  1.00000001e+00  4.05e-13 3.47e-18  3.84e-14    14s

Barrier solved model in 21 iterations and 14.35 seconds (8.18 work units)
Optimal objective 1.00000000e+00


Root crossover log...

    4896 DPushes remaining with DInf 0.0000000e+00                15s
       0 DPushes remaining with DInf 0.0000000e+00                15s

   39628 PPushes remaining with PInf 0.0000000e+00                15s
       3 PPushes remaining with PInf 0.0000000e+00                16s
       0 PPushes remaining with PInf 0.0000000e+00                16s

  Push phase complete: Pinf 0.0000000e+00, Dinf 0.0000000e+00     16s


Root simplex log...

Iteration    Objective       Primal Inf.    Dual Inf.      Time
   39632    1.0000000e+00   0.000000e+00   0.000000e+00     16s
   39632    1.0000000e+00   0.000000e+00   0.000000e+00     17s
Concurrent spin time: 2.20s (can be avoided by choosing Method=3)

Solved with barrier

Root relaxation: objective 1.000000e+00, 39632 iterations, 15.35 seconds (6.66 work units)
Total elapsed time = 62.25s (DegenMoves)

    Nodes    |    Current Node    |     Objective Bounds      |     Work
 Expl Unexpl |  Obj  Depth IntInf | Incumbent    BestBd   Gap | It/Node Time

     0     0    1.00000    0 9338 -16299.215    1.00000   100%     -   62s
     0     2    1.00000    0 9338 -16299.215    1.00000   100%     -  283s
H    1     4                    -16299.21525    1.00000   100%  2948  528s
H    2     4                    -16299.21525    1.00000   100%  9096  528s
     3     8    1.00000    2 7793 -16299.215    1.00000   100%  8315  530s
     7    16    1.00000    3 7792 -16299.215    1.00000   100%  3565  720s
    15    32    1.00000    4 4329 -16299.215    1.00000   100%  3881 1399s
H   31    64                    -16299.21524    1.00000   100%  5647 1712s
H   32    64                       0.7708333    1.00000  29.7%  5471 1713s
    63    96    1.00000    6 4326    0.77083    1.00000  29.7%  4525 2451s
    95   128    1.00000    7 4324    0.77083    1.00000  29.7%  8048 2612s
   127   160    1.00000    8 4097    0.77083    1.00000  29.7%  6034 3019s
   159   192    1.00000    9 4095    0.77083    1.00000  29.7%  4959 3129s
   191   240    1.00000   10 4104    0.77083    1.00000  29.7%  4152 3315s
   239   309    1.00000   12 4111    0.77083    1.00000  29.7%  3444 3600s

Explored 308 nodes (879439 simplex iterations) in 3600.72 seconds (5015.99 work units)
Thread count was 32 (of 192 available processors)

Solution count 4: 0.770833 -16299.2 -16299.2 -16299.2 

Time limit reached
Best objective 7.708333333351e-01, best bound 1.000000000000e+00, gap 29.7297%

User-callback calls 2181100, time in user-callback 11.35 sec
